=====UNKNOWN=====
% time elapsed: 1800.06 s
%%%mzn-stat: initTime=0.049510277
%%%mzn-stat: nodes=846988
%%%mzn-stat: restarts=0
%%%mzn-stat: peakDepth=345
%%%mzn-stat: solveTime=1799.7737032
%%%mzn-stat: variables=4319
%%%mzn-stat: propagators=3819
%%%mzn-stat: failures=825565
%%%mzn-stat: propagations=86111860
%%%mzn-stat: nogoods=825565
%%%mzn-stat: AverageConflictSize=99.37663418386197
%%%mzn-stat: NumUnitNogoodsLearned=141
%%%mzn-stat: AverageLearnedNogoodLength=141.98810632718198
%%%mzn-stat: AverageBacktrackAmount=0
%%%mzn-stat: AverageLbd=61.32814254480265
%%%mzn-stat-end
